#######################################
### Exact MIP solver for the HHCRSP ###
#######################################
-- Instance file: new-instances/HHCRSP_400_80_92_0.8_C_C.txt
-- Max threads: 4
-- Time limit: 999999 seconds
-- Use initial solution: No
Trivial flow violations prevented generating 2739705 variables.
Version identifier: 20.1.0.0 | 2020-11-10 | 9bedb6d68
CPXPARAM_Threads                                 4
CPXPARAM_Emphasis_Memory                         1
CPXPARAM_TimeLimit                               999999
Tried aggregator 1 time.
Presolve has eliminated 79314 rows and 16936 columns...
LP Presolve eliminated 79314 rows and 16936 columns.
Reduced LP has 2761878 rows, 2619350 columns, and 76328081 nonzeros.
Presolve time = 72.72 sec. (16286.15 ticks)
Compression time = 17.86 sec. (5.23 ticks)
Compression reduced 1109.07 MB A matrix to 334.31 MB
Symmetry aggregator did 4643441 additional substitutions.
Elapsed time = 91.98 sec. (17032.81 ticks, 1 iterations)

Iteration log . . .
Iteration:     1   Dual objective     =             0.000000
Iteration:  1787   Dual objective     =           339.333333

Dual crossover.
  Dual:  Fixing 2735 variables.
     2734 DMoves:  Infeasibility  2.46586085e-12  Objective  3.41666667e+02
        0 DMoves:  Infeasibility  2.72154521e-12  Objective  3.41666667e+02
  Dual:  Pushed 57, exchanged 2678.
  Primal:  Fixing 1776 variables.
     1775 PMoves:  Infeasibility  5.55111512e-17  Objective  3.41666667e+02
        0 PMoves:  Infeasibility  1.49880108e-15  Objective  3.41666667e+02
  Primal:  Pushed 1603, exchanged 173.

Solution status from MIP model:
-- Processing time: 130.644 sec.
-- Memory used: 1743.96 MB
-- Best bound: inf
-- Obj value: 341.667
-- Gap: inf%
-- Total distance: 1025
-- Total tardiness: 0
-- Largest tardiness: 0
